NAME : morphed22-2-8
COMMENT : Generated using the function morphInstances from the R-package netgen (Bossek,2015) - Number of clusters: 2 Alpha: 0.5
TYPE : TSP
DIMENSION : 22
EDGE_WEIGHT_TYPE : EUC_2D
NODE_COORD_SECTION
1 48.2332314271 70.2420229106
2 57.9959906124 33.1604846707
3 86.2701872197 59.9636397833
4 59.7820381443 96.9700175186
5 65.9547688272 27.0659981031
6 79.8692071914 56.6575089833
7 40.0961308268 72.5657819216
8 95.0903457381 67.5005500562
9 87.4202228875 27.6129616122
10 79.6723080408 55.0624176812
11 46.5749385902 94.9052452214
12 30.9083098195 53.0721963261
13 62.0256684314 41.5324350162
14 76.4391685307 40.6477741385
15 24.4656366697 96.9390007487
16 95.2618923078 71.9796608433
17 20.3468257802 63.7466149414
18 29.5381453308 78.6176890169
19 31.2561063391 93.802593995
20 74.0345380801 36.9485122264
21 33.4794397073 66.368391093
22 41.8076719862 91.51238405
EOF
